data;
param n:=100;
param w:=1 -518 2 264 3 -376 4 -309 5 -280 6 -101 7 -181 8 461 9 136 10 -189 11 380 12 413 13 -5 14 -152 15 251 16 245 17 -32 18 -28 19 391 20 -487 21 -93 22 51 23 235 24 188 25 -42 26 -461 27 -477 28 261 29 -59 30 -72 31 146 32 -507 33 362 34 98 35 294 36 -201 37 -19 38 -532 39 -357 40 449 41 -87 42 446 43 261 44 -485 45 -331 46 -525 47 404 48 -371 49 209 50 -282 51 187 52 -241 53 436 54 -304 55 116 56 39 57 323 58 441 59 -450 60 213 61 -22 62 190 63 -397 64 -196 65 258 66 92 67 -55 68 126 69 -36 70 376 71 -375 72 -218 73 -430 74 -328 75 457 76 -147 77 285 78 -81 79 347 80 25 81 64 82 -191 83 97 84 203 85 369 86 140 87 -168 88 235 89 -226 90 338 91 -37 92 438 93 295 94 301 95 281 96 -446 97 -372 98 -524 99 279 100 -93;
